p cnf 48 136
1 2 3 0
4 5 6 0
7 8 9 0
10 11 12 0
13 14 15 0
16 17 18 0
19 20 21 0
22 23 24 0
25 26 27 0
28 29 30 0
31 32 33 0
34 35 36 0
37 38 39 0
40 41 42 0
43 44 45 0
46 47 48 0
-1 -2 0
-1 -3 0
-2 -3 0
-4 -5 0
-4 -6 0
-5 -6 0
-7 -8 0
-7 -9 0
-8 -9 0
-10 -11 0
-10 -12 0
-11 -12 0
-13 -14 0
-13 -15 0
-14 -15 0
-16 -17 0
-16 -18 0
-17 -18 0
-19 -20 0
-19 -21 0
-20 -21 0
-22 -23 0
-22 -24 0
-23 -24 0
-25 -26 0
-25 -27 0
-26 -27 0
-28 -29 0
-28 -30 0
-29 -30 0
-31 -32 0
-31 -33 0
-32 -33 0
-34 -35 0
-34 -36 0
-35 -36 0
-37 -38 0
-37 -39 0
-38 -39 0
-40 -41 0
-40 -42 0
-41 -42 0
-43 -44 0
-43 -45 0
-44 -45 0
-46 -47 0
-46 -48 0
-47 -48 0
-1 -19 0
-2 -20 0
-3 -21 0
-1 -22 0
-2 -23 0
-3 -24 0
-1 -31 0
-2 -32 0
-3 -33 0
-1 -34 0
-2 -35 0
-3 -36 0
-4 -10 0
-5 -11 0
-6 -12 0
-4 -46 0
-5 -47 0
-6 -48 0
-7 -43 0
-8 -44 0
-9 -45 0
-10 -13 0
-11 -14 0
-12 -15 0
-10 -25 0
-11 -26 0
-12 -27 0
-13 -25 0
-14 -26 0
-15 -27 0
-13 -28 0
-14 -29 0
-15 -30 0
-13 -40 0
-14 -41 0
-15 -42 0
-16 -22 0
-17 -23 0
-18 -24 0
-16 -28 0
-17 -29 0
-18 -30 0
-16 -34 0
-17 -35 0
-18 -36 0
-19 -22 0
-20 -23 0
-21 -24 0
-19 -25 0
-20 -26 0
-21 -27 0
-19 -46 0
-20 -47 0
-21 -48 0
-22 -40 0
-23 -41 0
-24 -42 0
-25 -34 0
-26 -35 0
-27 -36 0
-28 -31 0
-29 -32 0
-30 -33 0
-28 -43 0
-29 -44 0
-30 -45 0
-31 -34 0
-32 -35 0
-33 -36 0
-31 -46 0
-32 -47 0
-33 -48 0
